SDVRP instances/p02/p02_3070_tsplib0_splitx10_0.vrp
NAME:.\SDVRP_splitx10_
BEST_KNOWN: 0
COMMENT: 0
DIMENSION: 438
CAPACITY: 1400
EDGE_WEIGHT_FORMAT: FUNCTION
EDGE_WEIGHT_TYPE: EXACT_2D
NODE_COORD_SECTION
1 0.00000 0.00000
2 -18 -18
3 -18 -18
4 -18 -18
5 -18 -18
6 -18 -18
7 -18 -18
8 -18 -18
9 -4 -14
10 -4 -14
11 -4 -14
12 -4 -14
13 -19 5
14 -19 5
15 -19 5
16 -19 5
17 -19 5
18 -19 5
19 -19 5
20 5 -5
21 5 -5
22 5 -5
23 5 -5
24 5 -5
25 5 -5
26 15 -20
27 15 -20
28 15 -20
29 15 -20
30 15 -20
31 -7 -6
32 -7 -6
33 -7 -6
34 -7 -6
35 -7 -6
36 -7 -6
37 -7 -6
38 -7 -6
39 10 10
40 10 10
41 10 10
42 10 10
43 10 10
44 10 10
45 10 10
46 10 10
47 15 5
48 15 5
49 15 5
50 15 5
51 15 5
52 15 5
53 15 5
54 -14 19
55 -14 19
56 -14 19
57 -14 19
58 -14 19
59 -14 19
60 0 26
61 0 26
62 0 26
63 15 25
64 15 25
65 15 25
66 15 25
67 15 25
68 15 25
69 -5 11
70 -5 11
71 -5 11
72 -5 11
73 22 -5
74 22 -5
75 22 -5
76 22 -5
77 22 -5
78 22 -5
79 22 -5
80 22 17
81 22 17
82 22 17
83 22 17
84 22 -16
85 22 -16
86 22 -16
87 22 -16
88 22 -16
89 22 -16
90 22 -16
91 -19 -4
92 -19 -4
93 -19 -4
94 -19 -4
95 -7 4
96 -7 4
97 -7 4
98 -7 4
99 -7 4
100 -31 16
101 -31 16
102 -31 16
103 22 8
104 22 8
105 22 8
106 22 8
107 22 8
108 22 8
109 22 8
110 26 -26
111 26 -26
112 26 -26
113 26 -26
114 26 -26
115 4 -27
116 4 -27
117 4 -27
118 4 -27
119 4 -27
120 4 -27
121 -14 -27
122 -14 -27
123 -14 -27
124 -14 -27
125 -29 -12
126 -29 -12
127 -29 -12
128 -29 -12
129 -29 -12
130 -33 3
131 -33 3
132 -33 3
133 -33 3
134 -33 3
135 -33 3
136 -23 24
137 -23 24
138 -23 24
139 -23 24
140 -23 24
141 1 6
142 1 6
143 1 6
144 1 6
145 1 6
146 1 6
147 1 6
148 1 6
149 1 6
150 15 -6
151 15 -6
152 15 -6
153 -5 -24
154 -5 -24
155 -5 -24
156 -5 -24
157 12 -14
158 12 -14
159 12 -14
160 12 -14
161 3 -14
162 3 -14
163 3 -14
164 3 -14
165 3 -14
166 3 -14
167 -9 36
168 -9 36
169 -9 36
170 -9 36
171 -9 36
172 -9 36
173 -9 36
174 -18 13
175 -18 13
176 -18 13
177 -18 13
178 -18 13
179 -14 -11
180 -14 -11
181 -14 -11
182 -14 -11
183 -14 -11
184 -14 -11
185 10 0
186 10 0
187 10 0
188 10 0
189 10 0
190 10 0
191 10 0
192 15 10
193 15 10
194 15 10
195 15 10
196 15 10
197 15 10
198 15 10
199 14 -30
200 14 -30
201 14 -30
202 14 -30
203 14 -30
204 14 -30
205 14 -30
206 20 -25
207 20 -25
208 20 -25
209 20 -25
210 7 26
211 7 26
212 7 26
213 7 26
214 7 26
215 7 26
216 7 26
217 7 26
218 -10 20
219 -10 20
220 -10 20
221 -10 20
222 -10 20
223 -10 20
224 -10 20
225 -10 20
226 -10 10
227 -10 10
228 -10 10
229 -10 10
230 -10 10
231 -10 10
232 -28 -23
233 -28 -23
234 -28 -23
235 -28 -23
236 -28 -23
237 -28 -23
238 -25 -26
239 -25 -26
240 -25 -26
241 -25 -26
242 -25 -26
243 -24 -21
244 -24 -21
245 -24 -21
246 -24 -21
247 -19 8
248 -19 8
249 -19 8
250 -19 8
251 -19 8
252 -19 8
253 10 -10
254 10 -10
255 10 -10
256 10 -10
257 11 2
258 11 2
259 11 2
260 10 -25
261 10 -25
262 10 -25
263 10 -25
264 10 -25
265 10 -25
266 10 -25
267 10 -25
268 8 -19
269 8 -19
270 8 -19
271 8 -19
272 8 -19
273 8 -19
274 -28 -2
275 -28 -2
276 -28 -2
277 -28 -2
278 -28 -2
279 -28 -2
280 -28 -2
281 -25 16
282 -25 16
283 -25 16
284 -25 16
285 -25 16
286 -25 16
287 -25 16
288 -25 16
289 -11 -1
290 -11 -1
291 -11 -1
292 -11 -1
293 -11 -1
294 -11 -1
295 14 -2
296 14 -2
297 14 -2
298 14 -2
299 14 -2
300 15 17
301 15 17
302 15 17
303 15 17
304 15 17
305 27 1
306 27 1
307 27 1
308 27 1
309 27 1
310 27 1
311 -30 30
312 -30 30
313 -30 30
314 -30 30
315 -30 30
316 -30 30
317 -30 30
318 -30 30
319 -30 30
320 -34 -15
321 -34 -15
322 -34 -15
323 -34 -15
324 -34 -15
325 -34 -15
326 -34 -15
327 -34 -15
328 25 -13
329 25 -13
330 25 -13
331 25 -13
332 25 -13
333 0 20
334 0 20
335 0 20
336 0 20
337 0 20
338 0 20
339 0 20
340 30 24
341 30 24
342 30 24
343 30 24
344 24 -36
345 24 -36
346 24 -36
347 24 -36
348 24 -36
349 -4 -34
350 -4 -34
351 -4 -34
352 -4 -34
353 -10 -20
354 -10 -20
355 -20 -10
356 -20 -10
357 -20 -10
358 -20 -10
359 -20 -10
360 -25 -35
361 -25 -35
362 -25 -35
363 -25 -35
364 10 30
365 10 30
366 10 30
367 10 30
368 10 30
369 10 30
370 17 32
371 17 32
372 17 32
373 17 32
374 17 32
375 17 32
376 17 32
377 5 2
378 5 2
379 5 2
380 5 2
381 5 2
382 5 2
383 5 2
384 -2 -7
385 -2 -7
386 -2 -7
387 -2 -7
388 -2 -7
389 -2 -7
390 10 -36
391 10 -36
392 10 -36
393 10 -36
394 10 -36
395 10 -36
396 10 -36
397 10 -36
398 10 -36
399 26 -32
400 26 -32
401 26 -32
402 26 -32
403 26 -32
404 26 -32
405 26 -32
406 26 -32
407 19 -35
408 19 -35
409 19 -35
410 19 -35
411 19 -35
412 19 -35
413 19 -35
414 -5 20
415 -5 20
416 -5 20
417 -5 20
418 -5 20
419 -13 -16
420 -13 -16
421 -13 -16
422 -13 -16
423 -13 -16
424 -13 -16
425 -13 -16
426 0 -20
427 0 -20
428 0 -20
429 0 -20
430 0 -20
431 0 -20
432 0 -20
433 0 -20
434 0 -20
435 0 -3
436 0 -3
437 0 -3
438 0 -3
DEMAND_SECTION
1 0
2 280
3 280
4 280
5 14
6 14
7 14
8 8
9 280
10 280
11 70
12 10
13 280
14 140
15 70
16 14
17 14
18 14
19 8
20 280
21 280
22 140
23 14
24 14
25 2
26 280
27 280
28 280
29 70
30 10
31 280
32 280
33 280
34 14
35 14
36 14
37 14
38 4
39 280
40 280
41 70
42 14
43 14
44 14
45 14
46 4
47 280
48 140
49 14
50 14
51 14
52 14
53 4
54 280
55 140
56 70
57 14
58 14
59 12
60 280
61 140
62 10
63 280
64 280
65 280
66 14
67 14
68 2
69 280
70 280
71 70
72 10
73 280
74 280
75 70
76 14
77 14
78 14
79 8
80 280
81 280
82 140
83 10
84 280
85 280
86 140
87 70
88 14
89 14
90 12
91 280
92 280
93 14
94 6
95 280
96 140
97 14
98 14
99 12
100 280
101 280
102 140
103 280
104 280
105 280
106 14
107 14
108 14
109 8
110 280
111 280
112 140
113 14
114 6
115 280
116 140
117 14
118 14
119 14
120 8
121 280
122 280
123 140
124 70
125 280
126 280
127 140
128 70
129 10
130 280
131 280
132 140
133 14
134 14
135 12
136 280
137 280
138 280
139 14
140 6
141 280
142 280
143 140
144 70
145 14
146 14
147 14
148 14
149 4
150 280
151 140
152 10
153 280
154 280
155 280
156 10
157 280
158 140
159 70
160 10
161 280
162 140
163 14
164 14
165 14
166 8
167 280
168 280
169 280
170 14
171 14
172 14
173 8
174 280
175 280
176 280
177 14
178 6
179 280
180 280
181 280
182 14
183 14
184 12
185 280
186 140
187 70
188 14
189 14
190 14
191 8
192 280
193 280
194 280
195 14
196 14
197 14
198 8
199 280
200 280
201 70
202 14
203 14
204 14
205 8
206 280
207 280
208 280
209 10
210 280
211 280
212 70
213 14
214 14
215 14
216 14
217 4
218 280
219 280
220 70
221 14
222 14
223 14
224 14
225 4
226 280
227 280
228 280
229 14
230 14
231 12
232 280
233 140
234 70
235 14
236 14
237 2
238 280
239 140
240 14
241 14
242 2
243 280
244 280
245 140
246 70
247 280
248 280
249 140
250 70
251 14
252 6
253 280
254 280
255 280
256 70
257 280
258 280
259 10
260 280
261 280
262 70
263 14
264 14
265 14
266 14
267 4
268 280
269 280
270 70
271 14
272 14
273 2
274 280
275 280
276 280
277 14
278 14
279 14
280 8
281 280
282 280
283 140
284 14
285 14
286 14
287 14
288 4
289 280
290 280
291 140
292 70
293 14
294 6
295 280
296 280
297 140
298 70
299 10
300 280
301 140
302 14
303 14
304 12
305 280
306 280
307 280
308 70
309 14
310 6
311 280
312 280
313 140
314 70
315 14
316 14
317 14
318 14
319 4
320 280
321 280
322 140
323 70
324 14
325 14
326 14
327 8
328 280
329 280
330 14
331 14
332 2
333 280
334 280
335 140
336 70
337 14
338 14
339 12
340 280
341 280
342 70
343 10
344 280
345 280
346 14
347 14
348 12
349 280
350 280
351 280
352 70
353 280
354 280
355 280
356 280
357 14
358 14
359 2
360 280
361 280
362 14
363 6
364 280
365 280
366 14
367 14
368 14
369 8
370 280
371 280
372 70
373 14
374 14
375 14
376 8
377 280
378 280
379 280
380 14
381 14
382 14
383 8
384 280
385 140
386 14
387 14
388 14
389 8
390 280
391 280
392 280
393 70
394 14
395 14
396 14
397 14
398 4
399 280
400 280
401 280
402 14
403 14
404 14
405 14
406 4
407 280
408 280
409 280
410 70
411 14
412 14
413 12
414 280
415 280
416 280
417 70
418 10
419 280
420 280
421 280
422 14
423 14
424 14
425 8
426 280
427 280
428 280
429 70
430 14
431 14
432 14
433 14
434 4
435 280
436 140
437 14
438 6
DEPOT_SECTION
1
-1
EOF