SDVRP instances/p02/p02_3070_tsplib0_splitx10_0.sol
437 -3 238 241 240 239 237 362 360 359 361 424 422 423 421 -5 2 6 1 7 4 245 243 244 242 -14 17 16 15 18 12 13 274 93 92 90 91 -21 19 20 434 435 436 437 -22 24 23 255 254 252 253 157 156 -27 25 26 268 267 -28 29 405 402 404 401 398 399 403 400 208 205 -30 37 35 34 36 182 179 180 178 181 183 -31 33 32 288 293 292 291 290 289 -38 40 193 192 191 195 196 197 194 -41 42 45 43 44 39 213 209 210 211 332 335 -52 49 48 50 51 46 47 105 107 108 106 104 102 103 -57 55 56 54 53 58 136 135 138 137 139 -64 62 67 63 66 65 301 302 300 299 303 -69 70 68 71 218 219 220 223 217 224 222 221 -82 80 81 79 340 341 342 339 -86 83 89 87 84 88 85 327 330 329 331 328 -96 98 94 95 97 225 227 226 230 -101 99 100 281 287 285 176 175 177 -109 111 113 110 112 207 206 159 158 -117 119 116 118 115 114 351 349 348 350 -123 121 122 120 353 352 -127 126 125 124 128 357 356 354 355 358 -133 130 134 131 129 132 273 275 277 276 278 279 -144 146 145 142 143 141 140 147 148 -149 150 151 77 76 74 72 75 78 73 258 257 -154 152 153 155 11 9 10 384 385 387 386 388 -160 161 432 431 430 426 427 425 428 433 429 -165 163 164 162 408 411 409 406 343 345 347 346 344 -169 171 170 172 166 168 167 59 60 61 338 -190 189 184 186 188 185 187 295 296 298 294 297 -201 198 199 202 262 261 264 259 263 260 266 265 269 272 271 270 -203 200 204 407 412 410 390 396 393 394 392 391 389 395 397 -216 214 215 212 366 368 365 363 364 367 370 375 371 369 372 374 373 -228 229 173 174 247 251 250 248 246 249 -235 233 231 234 232 236 322 321 319 324 320 325 323 326 -256 309 306 304 305 308 307 -282 286 280 283 284 314 312 315 311 316 310 317 313 318 -334 337 336 333 415 413 414 417 416 -378 377 381 380 379 376 382 -383 8 419 418 420 0 





OBJ=
2298.785
BEST_KNOWN=
0.000